(declare-sort $$unsorted 0)
(declare-fun tptp.op ($$unsorted $$unsorted) $$unsorted)
(assert (forall ((X0 $$unsorted) (X1 $$unsorted) (X2 $$unsorted) (X3 $$unsorted) (X4 $$unsorted)) (= X0 (tptp.op X1 (tptp.op X1 (tptp.op X2 (tptp.op X1 X0)))))))
(assert (not (forall ((X0 $$unsorted) (X1 $$unsorted) (X2 $$unsorted) (X3 $$unsorted) (X4 $$unsorted)) (= X0 (tptp.op X1 (tptp.op X2 (tptp.op X3 (tptp.op X4 X0))))))))
(set-info :filename Equation524_implies_Equation608)
(check-sat-assuming ( true ))
